1111100 AB
422 435 448 461 474 487 500 513 526 539 557 574 591 608 625 641 665 690 714 739 763 788 812 828 844 861 877 894 910 927 944 961 978 995 1012 1029 1042 1055 1067 1080 1093 1106 1118 1131 1144 1160 1176 1193 1209 1225 1249 1273
1111100 BA
439 452 465 478 491 504 517 530 543 556 574 591 608 624 641 657 681 706 730 755 779 804 828 844 860 877 893 910 927 944 961 978 995 1012 1029 1046 1059 1072 1084 1097 1110 1123 1135 1148 1160 1176 1192 1209 1225 1241 1265 1288
0000011 AB
428 451 475 498 522 545 568 591 607 622 638 654 677 701 724 748 771 795 819 844 868 891 915 938 962 985 1009 1032 1055 1071 1086 1102 1118 1133 1148 1163 1178 1193 1208 1230 1253 1276
0000011 BA
444 467 491 514 538 561 584 607 623 638 654 670 693 717 740 764 787 811 835 860 884 907 931 954 978 1001 1025 1048 1071 1087 1102 1118 1134 1149 1164 1179 1194 1209 1224 1246 1268 1291
